p edge 62 192
e 1 42
e 1 49
e 1 61
e 2 17
e 2 28
e 2 30
e 2 43
e 2 50
e 3 8
e 3 33
e 3 54
e 3 57
e 3 62
e 4 13
e 4 14
e 4 20
e 4 27
e 4 49
e 4 52
e 4 56
e 5 33
e 5 35
e 5 37
e 5 38
e 5 40
e 5 41
e 5 59
e 5 61
e 6 11
e 6 15
e 6 53
e 7 19
e 7 37
e 7 40
e 7 56
e 7 62
e 8 13
e 8 14
e 8 15
e 8 41
e 8 43
e 8 48
e 8 56
e 8 57
e 9 12
e 9 15
e 9 17
e 9 38
e 9 56
e 10 18
e 10 20
e 10 31
e 10 32
e 10 43
e 11 16
e 11 18
e 11 35
e 11 48
e 11 50
e 12 14
e 12 18
e 12 29
e 12 34
e 12 38
e 12 39
e 12 54
e 12 57
e 13 20
e 13 21
e 13 22
e 13 60
e 14 17
e 14 20
e 14 21
e 14 22
e 14 27
e 14 39
e 14 41
e 14 60
e 15 20
e 15 22
e 15 27
e 15 38
e 15 46
e 15 55
e 15 60
e 16 19
e 16 21
e 16 41
e 16 47
e 16 55
e 16 60
e 16 61
e 17 19
e 17 47
e 18 34
e 19 40
e 19 43
e 19 53
e 19 57
e 20 36
e 20 54
e 21 25
e 21 39
e 21 43
e 21 54
e 22 24
e 22 27
e 22 32
e 22 34
e 22 35
e 22 58
e 23 27
e 23 28
e 23 45
e 23 54
e 24 40
e 24 54
e 24 55
e 24 61
e 25 32
e 25 39
e 25 40
e 25 46
e 25 52
e 25 53
e 25 54
e 26 38
e 26 54
e 26 55
e 26 58
e 27 28
e 27 29
e 27 30
e 27 43
e 27 55
e 28 30
e 28 37
e 28 56
e 28 62
e 29 55
e 30 45
e 30 53
e 30 54
e 31 34
e 31 46
e 32 39
e 32 40
e 32 44
e 32 53
e 32 57
e 33 45
e 33 49
e 33 58
e 34 36
e 34 40
e 34 44
e 34 55
e 34 62
e 35 44
e 36 61
e 37 45
e 37 62
e 39 56
e 40 47
e 40 62
e 41 43
e 41 44
e 41 48
e 41 56
e 41 62
e 42 51
e 42 57
e 42 58
e 44 46
e 45 47
e 46 48
e 46 54
e 46 59
e 47 49
e 47 57
e 49 50
e 49 58
e 51 58
e 52 54
e 53 54
e 53 55
e 53 59
e 53 61
e 54 59
e 56 60
e 60 62
